(set-logic QF_S)
(declare-fun var0 () String)
(assert (str.in.re var0 (re.++ (re.union (re.* (str.to.re "0")) (re.* (str.to.re "11"))) (re.++ (re.+ (re.union (str.to.re "22") (str.to.re "33"))) (re.++ (re.+ (re.* (str.to.re "4"))) (re.++ (re.+ (re.union (str.to.re "55") (str.to.re "666"))) (re.++ (re.union (re.+ (str.to.re "777")) (re.+ (str.to.re "8"))) (re.++ (re.+ (re.+ (str.to.re "99"))) (re.++ (re.union (re.union (str.to.re "aaa") (str.to.re "bb")) (re.union (str.to.re "cc") (str.to.re "d"))) (re.++ (re.* (re.+ (str.to.re "eee"))) (re.++ (re.union (re.* (str.to.re "ff")) (re.* (str.to.re "g"))) (re.++ (re.union (re.+ (str.to.re "h")) (re.+ (str.to.re "i"))) (re.++ (re.+ (re.* (str.to.re "j"))) (re.++ (re.* (re.+ (str.to.re "kkk"))) (re.++ (re.* (re.+ (str.to.re "lll"))) (re.++ (re.union (re.+ (str.to.re "m")) (re.+ (str.to.re "nnn"))) (re.++ (re.+ (re.* (str.to.re "o"))) (re.++ (re.+ (re.+ (str.to.re "pp"))) (re.++ (re.+ (re.* (str.to.re "q"))) (re.++ (re.* (re.union (str.to.re "r") (str.to.re "sss"))) (re.++ (re.union (re.+ (str.to.re "tt")) (re.+ (str.to.re "u"))) (re.++ (re.+ (re.+ (str.to.re "vv"))) (re.++ (re.* (re.* (str.to.re "ww"))) (re.++ (re.union (re.union (str.to.re "x") (str.to.re "y")) (re.union (str.to.re "zzz") (str.to.re "AAA"))) (re.++ (re.union (re.* (str.to.re "BBB")) (re.* (str.to.re "CC"))) (re.++ (re.+ (re.+ (str.to.re "D"))) (re.++ (re.* (re.* (str.to.re "EE"))) (re.++ (re.union (re.+ (str.to.re "FFF")) (re.+ (str.to.re "G"))) (re.++ (re.union (re.* (str.to.re "HH")) (re.* (str.to.re "II"))) (re.++ (re.+ (re.* (str.to.re "JJJ"))) (re.++ (re.union (re.union (str.to.re "KKK") (str.to.re "LL")) (re.union (str.to.re "MM") (str.to.re "N"))) (re.++ (re.+ (re.+ (str.to.re "OOO"))) (re.++ (re.* (re.* (str.to.re "PPP"))) (re.++ (re.+ (re.* (str.to.re "Q"))) (re.++ (re.+ (re.+ (str.to.re "R"))) (re.++ (re.union (re.union (str.to.re "S") (str.to.re "T")) (re.union (str.to.re "U") (str.to.re "VV"))) (re.++ (re.+ (re.+ (str.to.re "WWW"))) (re.++ (re.union (re.union (str.to.re "XX") (str.to.re "Y")) (re.union (str.to.re "ZZZ") (str.to.re "!"))) (re.++ (re.* (re.+ (str.to.re """"""))) (re.++ (re.union (re.+ (str.to.re "###")) (re.+ (str.to.re "$$$"))) (re.++ (re.* (re.+ (str.to.re "%%"))) (re.++ (re.* (re.union (str.to.re "&") (str.to.re "''"))) (re.++ (re.+ (re.* (str.to.re "((("))) (re.++ (re.+ (re.+ (str.to.re ")))"))) (re.++ (re.+ (re.* (str.to.re "**"))) (re.++ (re.union (re.+ (str.to.re "++")) (re.+ (str.to.re ","))) (re.++ (re.* (re.* (str.to.re "---"))) (re.++ (re.+ (re.union (str.to.re "..") (str.to.re "//"))) (re.++ (re.+ (re.union (str.to.re ":::") (str.to.re ";"))) (re.++ (re.union (re.* (str.to.re "<<")) (re.* (str.to.re "==="))) (re.++ (re.union (re.+ (str.to.re ">>")) (re.+ (str.to.re "??"))) (re.++ (re.* (re.+ (str.to.re "@@@"))) (re.++ (re.+ (re.union (str.to.re "[") (str.to.re "\\\\"))) (re.++ (re.+ (re.+ (str.to.re "]]]"))) (re.++ (re.* (re.+ (str.to.re "^^^"))) (re.++ (re.+ (re.* (str.to.re "___"))) (re.++ (re.* (re.+ (str.to.re "`"))) (re.++ (re.union (re.+ (str.to.re "{{{")) (re.+ (str.to.re "|"))) (re.++ (re.union (re.+ (str.to.re "}")) (re.+ (str.to.re "~"))) (re.++ (re.+ (re.union (str.to.re "000") (str.to.re "1"))) (re.++ (re.union (re.* (str.to.re "2")) (re.* (str.to.re "33"))) (re.++ (re.+ (re.+ (str.to.re "44"))) (re.++ (re.+ (re.union (str.to.re "55") (str.to.re "666"))) (re.++ (re.union (re.* (str.to.re "77")) (re.* (str.to.re "888"))) (re.++ (re.* (re.* (str.to.re "99"))) (re.++ (re.+ (re.* (str.to.re "a"))) (re.++ (re.* (re.* (str.to.re "bb"))) (re.++ (re.* (re.union (str.to.re "ccc") (str.to.re "ddd"))) (re.++ (re.union (re.union (str.to.re "eee") (str.to.re "fff")) (re.union (str.to.re "ggg") (str.to.re "hhh"))) (re.++ (re.+ (re.union (str.to.re "i") (str.to.re "jjj"))) (re.++ (re.* (re.union (str.to.re "kk") (str.to.re "l"))) (re.++ (re.union (re.union (str.to.re "mm") (str.to.re "nn")) (re.union (str.to.re "oo") (str.to.re "ppp"))) (re.++ (re.+ (re.+ (str.to.re "qqq"))) (re.++ (re.union (re.+ (str.to.re "rr")) (re.+ (str.to.re "sss"))) (re.++ (re.+ (re.union (str.to.re "t") (str.to.re "uu"))) (re.++ (re.* (re.union (str.to.re "v") (str.to.re "ww"))) (re.++ (re.+ (re.+ (str.to.re "xxx"))) (re.++ (re.union (re.+ (str.to.re "y")) (re.+ (str.to.re "zz"))) (re.++ (re.+ (re.+ (str.to.re "AA"))) (re.++ (re.union (re.union (str.to.re "BB") (str.to.re "CC")) (re.union (str.to.re "D") (str.to.re "EEE"))) (re.++ (re.* (re.union (str.to.re "F") (str.to.re "GGG"))) (re.++ (re.union (re.* (str.to.re "HH")) (re.* (str.to.re "II"))) (re.++ (re.* (re.* (str.to.re "JJJ"))) (re.++ (re.union (re.union (str.to.re "KKK") (str.to.re "LL")) (re.union (str.to.re "MM") (str.to.re "NNN"))) (re.++ (re.* (re.+ (str.to.re "OO"))) (re.++ (re.* (re.* (str.to.re "PPP"))) (re.++ (re.+ (re.+ (str.to.re "QQ"))) (re.* (re.+ (str.to.re "R"))))))))))))))))))))))))))))))))))))))))))))))))))))))))))))))))))))))))))))))))))))))))))
(assert (not (str.in.re var0 (re.++ (re.+ (re.union (str.to.re "0") (str.to.re "111"))) (re.++ (re.* (re.* (str.to.re "222"))) (re.++ (re.union (re.union (str.to.re "333") (str.to.re "4")) (re.union (str.to.re "5") (str.to.re "66"))) (re.++ (re.* (re.union (str.to.re "7") (str.to.re "888"))) (re.++ (re.union (re.* (str.to.re "9")) (re.* (str.to.re "aaa"))) (re.++ (re.* (re.+ (str.to.re "bbb"))) (re.++ (re.* (re.union (str.to.re "c") (str.to.re "dd"))) (re.++ (re.union (re.* (str.to.re "e")) (re.* (str.to.re "fff"))) (re.++ (re.union (re.* (str.to.re "gg")) (re.* (str.to.re "hhh"))) (re.++ (re.union (re.+ (str.to.re "i")) (re.+ (str.to.re "jjj"))) (re.++ (re.union (re.union (str.to.re "kkk") (str.to.re "l")) (re.union (str.to.re "mm") (str.to.re "nn"))) (re.++ (re.union (re.+ (str.to.re "oo")) (re.+ (str.to.re "ppp"))) (re.++ (re.* (re.+ (str.to.re "q"))) (re.++ (re.union (re.union (str.to.re "rr") (str.to.re "ss")) (re.union (str.to.re "tt") (str.to.re "uu"))) (re.++ (re.union (re.union (str.to.re "vv") (str.to.re "www")) (re.union (str.to.re "x") (str.to.re "yyy"))) (re.++ (re.* (re.union (str.to.re "zzz") (str.to.re "AA"))) (re.++ (re.+ (re.+ (str.to.re "BB"))) (re.++ (re.union (re.+ (str.to.re "CC")) (re.+ (str.to.re "DDD"))) (re.++ (re.+ (re.union (str.to.re "EEE") (str.to.re "FFF"))) (re.++ (re.* (re.* (str.to.re "GG"))) (re.++ (re.+ (re.union (str.to.re "HH") (str.to.re "II"))) (re.++ (re.+ (re.+ (str.to.re "JJ"))) (re.++ (re.* (re.* (str.to.re "K"))) (re.++ (re.* (re.union (str.to.re "L") (str.to.re "MM"))) (re.++ (re.+ (re.+ (str.to.re "NN"))) (re.++ (re.+ (re.union (str.to.re "O") (str.to.re "PPP"))) (re.++ (re.union (re.+ (str.to.re "Q")) (re.+ (str.to.re "RRR"))) (re.++ (re.* (re.union (str.to.re "SSS") (str.to.re "T"))) (re.++ (re.union (re.union (str.to.re "U") (str.to.re "VV")) (re.union (str.to.re "WWW") (str.to.re "X"))) (re.++ (re.union (re.+ (str.to.re "Y")) (re.+ (str.to.re "ZZZ"))) (re.++ (re.union (re.+ (str.to.re "!")) (re.+ (str.to.re """"""""))) (re.++ (re.* (re.+ (str.to.re "##"))) (re.++ (re.+ (re.+ (str.to.re "$$$"))) (re.++ (re.union (re.* (str.to.re "%%%")) (re.* (str.to.re "&"))) (re.++ (re.* (re.+ (str.to.re "''"))) (re.++ (re.union (re.union (str.to.re "((") (str.to.re ")))")) (re.union (str.to.re "*") (str.to.re "+++"))) (re.++ (re.+ (re.* (str.to.re ",,,"))) (re.++ (re.union (re.+ (str.to.re "--")) (re.+ (str.to.re ".."))) (re.++ (re.union (re.* (str.to.re "//")) (re.* (str.to.re ":::"))) (re.++ (re.* (re.union (str.to.re ";") (str.to.re "<<<"))) (re.++ (re.union (re.* (str.to.re "===")) (re.* (str.to.re ">>"))) (re.++ (re.+ (re.+ (str.to.re "?"))) (re.++ (re.union (re.union (str.to.re "@") (str.to.re "[[[")) (re.union (str.to.re "\\") (str.to.re "]]]"))) (re.++ (re.* (re.union (str.to.re "^") (str.to.re "___"))) (re.++ (re.+ (re.* (str.to.re "``"))) (re.++ (re.* (re.union (str.to.re "{") (str.to.re "||"))) (re.++ (re.union (re.* (str.to.re "}}}")) (re.* (str.to.re "~~"))) (re.++ (re.+ (re.union (str.to.re "000") (str.to.re "11"))) (re.++ (re.+ (re.+ (str.to.re "2"))) (re.++ (re.* (re.union (str.to.re "33") (str.to.re "444"))) (re.++ (re.* (re.* (str.to.re "5"))) (re.++ (re.union (re.union (str.to.re "6") (str.to.re "777")) (re.union (str.to.re "888") (str.to.re "99"))) (re.++ (re.union (re.union (str.to.re "aaa") (str.to.re "b")) (re.union (str.to.re "ccc") (str.to.re "d"))) (re.++ (re.* (re.union (str.to.re "ee") (str.to.re "fff"))) (re.++ (re.* (re.union (str.to.re "gg") (str.to.re "h"))) (re.++ (re.+ (re.+ (str.to.re "i"))) (re.++ (re.* (re.+ (str.to.re "jjj"))) (re.++ (re.* (re.+ (str.to.re "kk"))) (re.++ (re.* (re.+ (str.to.re "lll"))) (re.++ (re.union (re.* (str.to.re "mmm")) (re.* (str.to.re "nnn"))) (re.++ (re.union (re.* (str.to.re "o")) (re.* (str.to.re "pp"))) (re.++ (re.+ (re.union (str.to.re "q") (str.to.re "rr"))) (re.++ (re.+ (re.union (str.to.re "sss") (str.to.re "t"))) (re.++ (re.union (re.* (str.to.re "u")) (re.* (str.to.re "v"))) (re.++ (re.* (re.* (str.to.re "ww"))) (re.++ (re.* (re.+ (str.to.re "xx"))) (re.++ (re.union (re.* (str.to.re "yy")) (re.* (str.to.re "zz"))) (re.++ (re.union (re.union (str.to.re "AA") (str.to.re "BBB")) (re.union (str.to.re "C") (str.to.re "D"))) (re.++ (re.* (re.union (str.to.re "EEE") (str.to.re "F"))) (re.++ (re.* (re.+ (str.to.re "GGG"))) (re.++ (re.* (re.union (str.to.re "HH") (str.to.re "III"))) (re.++ (re.+ (re.union (str.to.re "J") (str.to.re "KK"))) (re.++ (re.* (re.+ (str.to.re "LLL"))) (re.++ (re.* (re.union (str.to.re "MM") (str.to.re "NN"))) (re.++ (re.* (re.* (str.to.re "OOO"))) (re.++ (re.* (re.union (str.to.re "PPP") (str.to.re "QQ"))) (re.++ (re.union (re.* (str.to.re "R")) (re.* (str.to.re "SS"))) (re.++ (re.union (re.+ (str.to.re "TTT")) (re.+ (str.to.re "UUU"))) (re.++ (re.* (re.* (str.to.re "VVV"))) (re.++ (re.+ (re.* (str.to.re "WW"))) (re.++ (re.* (re.union (str.to.re "XX") (str.to.re "YYY"))) (re.++ (re.* (re.* (str.to.re "ZZZ"))) (re.++ (re.* (re.* (str.to.re "!!!"))) (re.++ (re.* (re.union (str.to.re """""") (str.to.re "#"))) (re.++ (re.union (re.union (str.to.re "$$$") (str.to.re "%")) (re.union (str.to.re "&&") (str.to.re "''"))) (re.union (re.union (str.to.re "((") (str.to.re ")")) (re.union (str.to.re "***") (str.to.re "+")))))))))))))))))))))))))))))))))))))))))))))))))))))))))))))))))))))))))))))))))))))))))))
(check-sat)